25231
0 0 1 0 1 0 1 0 0 0 0 0 0 1 0 0 1 0 1 0 1 0 0 1 1 1 0 0 1 0 
18 6 2 24 2 6 16 28 24 28 4 28 13 13 28 18 13 20 16 24 18 16 23 24 23 18 24 28 4 2 6 6 4 16 28 6 20 20 24 16 18 20 6 4 13 4 13 16 28 20 24 16 24 16 20 6 18 20 18 25 4 2 18 20 13 25 23 28 28 25 18 25 6 20 23 23 20 23 20 16 23 2 20 25 4 13 6 2 24 25 28 6 25 25 2 13 28 6 2 28 28 16 25 18 4 24 4 24 16 13 6 4 18 6 6 20 28 25 23 20 20 25 28 4 4 16 2 25 4 28 28 24 25 20 23 20 13 13 28 23 6 18 28 25 25 2 24 16 18 25 24 24 23 2 20 28 2 16 13 13 13 24 13 2 23 18 23 4 13 16 23 20 28 13 4 2 24 20 4 23 2 16 2 6 6 20 28 23 24 2 2 16 6 4 25 6 25 2 23 6 
